
Log started (V22.2.0.0) Tue Jun  9 08:33:09 2026

New value for time limit in seconds: 120
New value for default parallel thread count: 4
New value for mixed integer optimality gap tolerance: 0.001
New value for level of mixed integer node display: 2

Problem 'results/InstanceA5_bigm_finsteps123.lp' read.
Read time = 0.01 sec. (0.20 ticks)
Version identifier: 22.2.0.0 | 2026-05-04 | 5dff98e58
CPXPARAM_Threads                                 4
CPXPARAM_TimeLimit                               120
CPXPARAM_MIP_Tolerances_MIPGap                   0.001
Tried aggregator 2 times.
MIP Presolve eliminated 24 rows and 24 columns.
MIP Presolve modified 21996 coefficients.
Aggregator did 231 substitutions.
Reduced MIP has 1995 rows, 1131 columns, and 5742 nonzeros.
Reduced MIP has 900 binaries, 0 generals, 0 SOSs, and 0 indicators.
Presolve time = 0.01 sec. (10.04 ticks)
Found incumbent of value 36.000000 after 0.01 sec. (14.57 ticks)
Probing time = 0.00 sec. (3.13 ticks)
Tried aggregator 1 time.
Detecting symmetries...
MIP Presolve modified 7 coefficients.
Reduced MIP has 1995 rows, 1131 columns, and 5742 nonzeros.
Reduced MIP has 900 binaries, 0 generals, 0 SOSs, and 0 indicators.
Presolve time = 0.00 sec. (3.16 ticks)
Probing time = 0.00 sec. (3.04 ticks)
Clique table members: 535.
MIP emphasis: balance optimality and feasibility.
MIP search method: dynamic search.
Parallel mode: deterministic, using up to 4 threads.
Root relaxation solution time = 0.01 sec. (14.85 ticks)

        Nodes                                         Cuts/
   Node  Left     Objective  IInf  Best Integer    Best Bound    ItCnt     Gap

*     0+    0                           36.0000       12.0000            66.67%
*     0+    0                           33.0000       12.0000            63.64%
*     0+    0                           28.0000       12.0000            57.14%
      0     0       12.0000     5       28.0000       12.0000      489   57.14%
*     0+    0                           15.0000       12.0000            20.00%
      0     0        cutoff             15.0000                    489    0.00%
Elapsed time = 0.04 sec. (46.80 ticks, tree = 0.01 MB, solutions = 4)

Root node processing (before b&c):
  Real time             =    0.04 sec. (46.90 ticks)
Parallel b&c, 4 threads:
  Real time             =    0.00 sec. (0.00 ticks)
  Sync time (average)   =    0.00 sec.
  Wait time (average)   =    0.00 sec.
                          ------------
Total (root+branch&cut) =    0.04 sec. (46.90 ticks)

Solution pool: 4 solutions saved.

MIP - Integer optimal solution:  Objective =  1.5000000000e+01
Solution time =    0.04 sec.  Iterations = 489  Nodes = 0
Deterministic time = 46.90 ticks  (1235.68 ticks/sec)


Incumbent solution written to file 'results/InstanceA5_bigm_finsteps123.sol'.
